words_hard_train/6072.qaiger
aag 80 15 0 1 65
2
4
8
16
20
22
26
30
38
76
80
106
110
134
146
161
6 3 5
10 6 9
12 7 8
14 11 13
18 4 16
24 21 23
28 25 26
32 28 30
34 20 22
36 33 35
40 37 38
42 41 3
44 36 39
46 43 45
48 19 47
50 5 17
52 49 51
54 14 52
56 45 27
58 56 23
60 15 53
62 58 61
64 55 62
66 44 2
68 66 17
70 41 16
72 67 70
74 69 73
78 6 77
82 78 81
84 79 80
86 83 85
88 77 9
90 52 89
92 76 8
94 91 93
96 87 94
98 75 97
100 86 95
102 98 101
104 64 102
108 78 107
112 108 111
114 109 110
116 113 115
118 107 81
120 95 119
122 106 80
124 121 123
126 117 124
128 116 125
130 127 129
132 104 130
136 135 111
138 125 137
140 134 110
142 139 141
144 108 135
148 144 147
150 145 146
152 149 151
154 143 152
156 132 155
158 142 153
160 156 159
i0 2 y2[2]
i1 2 y2[3]
i2 1 x2[4]
i3 1 x2[3]
i4 2 y2[1]
i5 1 x2[1]
i6 1 x2[0]
i7 2 y2[0]
i8 1 x2[2]
i9 2 y2[4]
i10 1 x2[5]
i11 2 y2[5]
i12 1 x2[6]
i13 2 y2[6]
i14 1 x2[7]
o0 bool[0]
c
simplified
  !=
    add
      2 y2
      1 x2
    subtract
      2 y2
      << 2
        1
