words_hard_train/6072.qaiger.qdimacs
p cnf 80 196
a 4 8 40 73 11 13 19 55 0
e 1 2 3 5 6 7 9 10 12 14 15 16 17 18 20 21 22 23 24 25 26 27 28 29 30 31 32 33 34 35 36 37 38 39 41 42 43 44 45 46 47 48 49 50 51 52 53 54 56 57 58 59 60 61 62 63 64 65 66 67 68 69 70 71 72 74 75 76 77 78 79 80 0
1 2 3 0
-1 -3 0
-2 -3 0
-3 4 5 0
3 -5 0
-4 -5 0
3 -4 6 0
-3 -6 0
4 -6 0
5 6 7 0
-5 -7 0
-6 -7 0
-2 -8 9 0
2 -9 0
8 -9 0
10 11 12 0
-10 -12 0
-11 -12 0
12 -13 14 0
-12 -14 0
13 -14 0
-14 -15 16 0
14 -16 0
15 -16 0
-10 -11 17 0
10 -17 0
11 -17 0
16 17 18 0
-16 -18 0
-17 -18 0
18 -19 20 0
-18 -20 0
19 -20 0
20 1 21 0
-20 -21 0
-1 -21 0
-18 19 22 0
18 -22 0
-19 -22 0
21 22 23 0
-21 -23 0
-22 -23 0
9 23 24 0
-9 -24 0
-23 -24 0
2 8 25 0
-2 -25 0
-8 -25 0
24 25 26 0
-24 -26 0
-25 -26 0
-7 -26 27 0
7 -27 0
26 -27 0
22 13 28 0
-22 -28 0
-13 -28 0
-28 11 29 0
28 -29 0
-11 -29 0
7 26 30 0
-7 -30 0
-26 -30 0
-29 30 31 0
29 -31 0
-30 -31 0
27 -31 32 0
-27 -32 0
31 -32 0
-22 -1 33 0
22 -33 0
1 -33 0
-33 8 34 0
33 -34 0
-8 -34 0
20 -8 35 0
-20 -35 0
8 -35 0
33 -35 36 0
-33 -36 0
35 -36 0
34 36 37 0
-34 -37 0
-36 -37 0
-3 38 39 0
3 -39 0
-38 -39 0
-39 40 41 0
39 -41 0
-40 -41 0
39 -40 42 0
-39 -42 0
40 -42 0
41 42 43 0
-41 -43 0
-42 -43 0
38 4 44 0
-38 -44 0
-4 -44 0
-26 44 45 0
26 -45 0
-44 -45 0
-38 -4 46 0
38 -46 0
4 -46 0
45 46 47 0
-45 -47 0
-46 -47 0
43 -47 48 0
-43 -48 0
47 -48 0
37 48 49 0
-37 -49 0
-48 -49 0
-43 47 50 0
43 -50 0
-47 -50 0
-49 50 51 0
49 -51 0
-50 -51 0
-32 -51 52 0
32 -52 0
51 -52 0
-39 53 54 0
39 -54 0
-53 -54 0
-54 55 56 0
54 -56 0
-55 -56 0
54 -55 57 0
-54 -57 0
55 -57 0
56 57 58 0
-56 -58 0
-57 -58 0
53 40 59 0
-53 -59 0
-40 -59 0
47 59 60 0
-47 -60 0
-59 -60 0
-53 -40 61 0
53 -61 0
40 -61 0
60 61 62 0
-60 -62 0
-61 -62 0
58 -62 63 0
-58 -63 0
62 -63 0
-58 62 64 0
58 -64 0
-62 -64 0
63 64 65 0
-63 -65 0
-64 -65 0
-52 -65 66 0
52 -66 0
65 -66 0
67 55 68 0
-67 -68 0
-55 -68 0
62 68 69 0
-62 -69 0
-68 -69 0
-67 -55 70 0
67 -70 0
55 -70 0
69 70 71 0
-69 -71 0
-70 -71 0
-54 67 72 0
54 -72 0
-67 -72 0
-72 73 74 0
72 -74 0
-73 -74 0
72 -73 75 0
-72 -75 0
73 -75 0
74 75 76 0
-74 -76 0
-75 -76 0
71 -76 77 0
-71 -77 0
76 -77 0
-66 77 78 0
66 -78 0
-77 -78 0
-71 76 79 0
71 -79 0
-76 -79 0
-78 79 80 0
78 -80 0
-79 -80 0
-80 0
